c Random 3-CNF over 20 variables and 80 clauses
c Generated with `cnfgen`
c (C) 2012-2016 Massimo Lauria <lauria.massimo@gmail.com>
c https://massimolauria.github.io/cnfgen
c
c COMMAND LINE: cnfgen --output tmp-3-20-80.dimacs --output-format dimacs randkcnf 3 20 80
c
c sdimacs generated by gen-sdimacs
c
p cnf 20 80
r 0.5 1 2 3 4 5 6 7 8 9 10 0
e  11 12 13 14 15 16 17 18 19 20 0
11 -12 -18 0
10 -11 16 0
-7 -12 -15 0
-4 -11 -16 0
-6 7 -15 0
1 -9 -14 0
-4 -11 18 0
6 -9 16 0
-1 -10 15 0
4 -17 -19 0
4 -7 16 0
3 4 12 0
3 17 18 0
-4 5 -15 0
-5 14 -18 0
11 17 19 0
-1 17 20 0
4 5 -8 0
2 4 -5 0
1 -17 -20 0
1 7 -14 0
5 12 17 0
-8 -10 -13 0
1 14 -16 0
5 12 -13 0
4 5 -13 0
1 -2 6 0
6 -7 19 0
3 11 -16 0
5 -14 -17 0
1 3 -8 0
-4 9 -17 0
1 6 -9 0
-1 2 16 0
-4 -11 12 0
-3 7 -14 0
6 9 -16 0
1 -5 -15 0
3 -12 -15 0
-10 14 -17 0
-8 10 -14 0
-7 -10 -14 0
-9 11 12 0
14 -16 -19 0
-5 8 -16 0
-9 12 14 0
-3 4 7 0
-11 17 19 0
-2 4 14 0
-4 -5 -13 0
9 15 -18 0
2 -8 16 0
-1 3 -13 0
-2 15 19 0
2 -8 -19 0
5 11 17 0
-1 -4 -16 0
-5 -14 15 0
-11 16 18 0
6 -19 20 0
-6 -7 -14 0
5 -17 19 0
-1 -7 -14 0
-1 -3 14 0
6 16 19 0
-5 9 -10 0
3 -9 -14 0
5 -6 16 0
-3 16 -18 0
-4 -6 -19 0
7 8 -10 0
7 11 -20 0
-8 11 -13 0
3 -12 -18 0
-8 -11 17 0
-4 15 20 0
4 10 18 0
-12 -14 16 0
-5 -15 -17 0
2 -3 -4 0
